SECTION Graph
Nodes 493
Edges 963
E 1 3 1
E 1 9 102
E 1 453 91
E 2 4 14
E 2 450 102
E 3 21 180
E 3 454 91
E 4 5 1
E 4 455 102
E 5 11 102
E 6 213 300
E 6 265 277
E 6 368 255
E 7 8 1
E 7 9 1
E 7 431 91
E 8 10 14
E 8 450 1
E 9 434 91
E 9 450 1
E 10 455 1
E 11 455 1
E 12 13 1
E 12 14 1
E 12 19 104
E 13 15 14
E 13 468 104
E 15 16 1
E 15 469 104
E 16 22 104
E 17 18 1
E 17 19 1
E 17 452 104
E 18 20 14
E 18 454 104
E 18 468 1
E 19 468 1
E 20 21 1
E 20 469 1
E 21 22 1
E 22 469 1
E 23 24 1
E 23 25 1
E 23 32 76
E 24 26 14
E 24 424 1
E 25 412 76
E 25 424 1
E 26 427 1
E 27 427 1
E 27 428 76
E 28 29 1
E 28 30 1
E 28 329 145
E 29 31 14
E 29 397 1
E 30 330 145
E 30 396 1
E 30 397 1
E 31 409 1
E 32 409 1
E 32 412 1
E 33 34 1
E 33 35 1
E 33 313 7
E 33 319 1
E 34 36 14
E 34 321 1
E 34 322 1
E 35 316 7
E 35 322 1
E 36 37 1
E 36 328 1
E 36 331 1
E 37 38 1
E 37 330 1
E 37 396 145
E 38 331 1
E 39 467 190
E 40 307 153
E 41 42 1
E 41 442 30
E 41 444 1
E 41 446 1
E 42 43 1
E 42 443 30
E 42 456 74
E 43 446 1
E 43 448 14
E 43 458 74
E 44 45 1
E 44 446 14
E 44 447 1
E 44 448 1
E 45 46 1
E 45 449 1
E 46 447 1
E 47 48 1
E 47 49 1
E 47 373 111
E 47 407 76
E 48 50 14
E 48 375 111
E 48 421 1
E 49 408 76
E 49 421 1
E 49 429 100
E 50 51 1
E 50 383 111
E 50 426 1
E 51 52 1
E 51 385 111
E 52 426 1
E 52 440 100
E 53 54 1
E 53 55 1
E 53 283 120
E 53 302 76
E 54 56 14
E 54 285 120
E 54 336 1
E 55 303 76
E 55 336 1
E 55 372 103
E 56 57 1
E 56 338 12
E 56 346 1
E 57 58 1
E 57 340 12
E 58 346 1
E 58 384 103
E 59 60 1
E 59 61 1
E 59 270 145
E 59 333 16
E 60 62 14
E 60 335 16
E 60 345 1
E 61 271 145
E 61 345 1
E 61 376 96
E 62 63 1
E 62 342 16
E 62 353 1
E 63 64 1
E 63 344 16
E 63 372 76
E 64 353 1
E 64 373 76
E 64 391 96
E 65 66 1
E 65 67 1
E 65 224 237
E 65 251 85
E 66 68 14
E 66 253 85
E 66 294 1
E 67 225 237
E 67 294 1
E 67 295 12
E 68 69 1
E 68 255 86
E 68 299 1
E 69 70 1
E 69 257 86
E 69 337 91
E 70 299 1
E 70 302 12
E 70 338 91
E 71 72 1
E 71 73 1
E 71 171 237
E 72 74 14
E 72 239 1
E 73 173 237
E 73 238 1
E 73 239 1
E 74 75 1
E 74 243 1
E 75 76 1
E 75 278 76
E 76 243 1
E 76 246 1
E 76 279 76
E 77 418 1
E 77 420 1
E 78 420 1
E 78 459 229
E 79 80 1
E 79 420 14
E 79 422 1
E 80 81 1
E 80 457 214
E 81 417 74
E 81 422 1
E 81 456 214
E 82 83 1
E 82 276 76
E 82 304 1
E 82 306 1
E 83 84 1
E 83 277 76
E 83 308 13
E 84 306 1
E 84 312 13
E 84 315 14
E 85 86 1
E 85 306 14
E 85 309 1
E 85 315 1
E 86 87 1
E 86 317 1
E 86 348 53
E 87 271 96
E 87 309 1
E 87 347 53
E 88 89 1
E 88 90 1
E 88 219 86
E 88 228 76
E 89 91 14
E 89 221 86
E 89 236 1
E 90 229 76
E 90 236 1
E 90 262 113
E 91 92 1
E 91 233 86
E 91 237 1
E 92 93 1
E 92 235 86
E 92 332 237
E 93 237 1
E 93 258 92
E 93 274 113
E 93 333 237
E 94 96 14
E 94 121 1
E 95 121 1
E 95 131 64
E 96 97 1
E 96 122 1
E 97 98 1
E 98 122 1
E 98 147 64
E 99 100 1
E 99 158 7
E 99 161 1
E 99 166 1
E 100 101 1
E 100 160 7
E 100 189 86
E 101 166 1
E 101 172 14
E 101 190 85
E 102 103 1
E 102 166 14
E 102 168 1
E 102 172 1
E 103 104 1
E 103 174 1
E 103 176 7
E 104 159 22
E 104 168 1
E 104 175 7
E 105 106 1
E 105 114 7
E 105 125 1
E 105 127 1
E 106 107 1
E 106 124 7
E 106 161 50
E 107 127 1
E 107 129 14
E 107 140 27
E 108 109 1
E 108 127 14
E 108 128 1
E 108 129 1
E 109 110 1
E 109 130 1
E 109 132 7
E 110 128 1
E 110 131 7
E 111 112 1
E 111 137 50
E 112 123 14
E 112 139 50
E 113 114 1
E 113 123 1
E 114 115 1
E 114 124 1
E 115 125 7
E 116 117 1
E 116 212 86
E 117 187 14
E 117 214 86
E 118 119 1
E 118 187 1
E 119 120 1
E 119 188 1
E 119 193 53
E 120 141 127
E 120 192 53
E 121 122 14
E 121 133 64
E 122 145 64
E 123 124 1
E 123 151 50
E 124 154 50
E 125 126 1
E 126 127 1
E 126 128 14
E 129 130 1
E 129 152 27
E 130 134 7
E 130 156 27
E 131 132 1
E 131 133 1
E 132 134 1
E 132 135 1
E 133 135 1
E 133 145 14
E 134 136 1
E 134 162 27
E 135 136 1
E 135 146 14
E 136 148 14
E 136 165 27
E 137 138 1
E 137 139 1
E 138 141 1
E 138 142 1
E 139 142 1
E 139 151 14
E 140 143 1
E 140 152 14
E 141 144 1
E 142 144 1
E 142 153 14
E 143 155 14
E 143 163 22
E 144 157 14
E 145 146 1
E 145 147 1
E 146 148 1
E 146 149 1
E 147 149 1
E 148 150 1
E 148 169 27
E 149 150 1
E 150 171 27
E 151 153 1
E 151 154 1
E 152 155 1
E 152 156 1
E 153 157 1
E 153 158 1
E 154 158 1
E 154 161 7
E 155 159 1
E 155 168 22
E 156 159 1
E 156 162 7
E 157 160 1
E 158 160 1
E 159 164 7
E 161 163 1
E 162 164 1
E 162 165 1
E 163 166 1
E 163 168 14
E 164 167 1
E 164 175 22
E 165 167 1
E 165 169 14
E 167 170 14
E 167 177 22
E 169 170 1
E 169 171 1
E 170 173 1
E 170 181 22
E 171 173 1
E 172 174 1
E 172 198 85
E 173 183 22
E 174 178 7
E 174 200 85
E 175 176 1
E 175 177 1
E 176 178 1
E 176 179 1
E 177 179 1
E 177 181 14
E 178 180 1
E 178 202 85
E 179 180 1
E 179 182 14
E 180 184 14
E 180 204 85
E 181 182 1
E 181 183 1
E 182 184 1
E 182 185 1
E 183 185 1
E 183 248 237
E 184 186 1
E 184 222 85
E 185 186 1
E 185 249 237
E 186 224 85
E 186 251 237
E 187 188 1
E 187 226 86
E 188 195 53
E 188 228 86
E 189 191 1
E 189 192 11
E 190 191 1
E 190 198 14
E 191 194 11
E 191 199 14
E 192 193 1
E 192 194 1
E 193 195 1
E 193 196 1
E 194 196 1
E 194 206 14
E 195 197 1
E 196 197 1
E 196 207 14
E 197 209 14
E 198 199 1
E 198 200 1
E 199 201 1
E 199 206 11
E 200 201 1
E 200 202 7
E 201 203 7
E 201 208 11
E 202 203 1
E 202 204 1
E 203 205 1
E 203 216 11
E 204 205 1
E 204 222 14
E 205 218 11
E 205 223 14
E 206 207 1
E 206 208 1
E 207 209 1
E 207 210 1
E 208 210 1
E 208 216 7
E 209 211 1
E 210 211 1
E 210 217 7
E 211 219 7
E 212 213 1
E 212 214 1
E 213 215 1
E 214 215 1
E 214 226 14
E 215 227 14
E 216 217 1
E 216 218 1
E 217 219 1
E 217 220 1
E 218 220 1
E 218 230 14
E 219 221 1
E 220 221 1
E 220 231 14
E 221 233 14
E 222 223 1
E 222 224 1
E 223 225 1
E 223 230 11
E 224 225 1
E 225 232 11
E 226 227 1
E 226 228 1
E 227 229 1
E 228 229 1
E 230 231 1
E 230 232 1
E 231 233 1
E 231 234 1
E 232 234 1
E 233 235 1
E 234 235 1
E 234 295 237
E 235 296 237
E 236 237 14
E 236 264 113
E 237 272 113
E 238 240 1
E 238 241 1
E 239 241 1
E 239 243 14
E 240 242 1
E 240 248 20
E 241 242 1
E 241 244 14
E 242 245 14
E 242 250 20
E 243 244 1
E 244 245 1
E 244 246 1
E 245 247 1
E 245 254 20
E 246 247 1
E 246 281 76
E 247 256 20
E 247 283 76
E 248 249 1
E 248 250 1
E 249 251 1
E 249 252 1
E 250 252 1
E 250 254 14
E 251 253 1
E 252 253 1
E 252 255 14
E 254 255 1
E 254 256 1
E 255 257 1
E 256 257 1
E 258 259 1
E 258 260 1
E 259 261 1
E 259 304 96
E 260 261 1
E 260 268 14
E 261 269 14
E 261 305 96
E 262 263 1
E 262 264 1
E 263 265 1
E 263 266 1
E 264 266 1
E 264 272 14
E 265 267 1
E 266 267 1
E 266 273 14
E 267 275 14
E 268 269 1
E 268 270 1
E 269 271 1
E 269 309 96
E 270 271 1
E 272 273 1
E 272 274 1
E 273 275 1
E 273 276 1
E 274 276 1
E 274 304 76
E 275 277 1
E 276 277 1
E 278 279 1
E 278 280 1
E 279 281 1
E 279 282 1
E 280 282 1
E 280 286 14
E 281 283 1
E 281 284 1
E 282 284 1
E 282 287 14
E 283 285 1
E 284 285 1
E 284 289 14
E 285 291 14
E 286 287 1
E 286 288 1
E 287 289 1
E 287 290 1
E 288 290 1
E 288 307 69
E 289 291 1
E 289 292 1
E 290 292 1
E 290 310 69
E 291 293 1
E 291 337 107
E 292 293 1
E 292 313 69
E 293 316 69
E 293 339 107
E 294 297 12
E 294 299 14
E 295 296 1
E 295 297 1
E 296 298 1
E 296 332 86
E 297 298 1
E 297 300 14
E 298 301 14
E 298 334 86
E 299 300 12
E 300 301 1
E 300 302 1
E 301 303 1
E 301 341 86
E 302 303 1
E 303 343 86
E 304 305 1
E 305 306 1
E 305 309 14
E 307 310 1
E 307 318 7
E 308 311 1
E 308 312 1
E 310 313 1
E 310 319 7
E 311 314 1
E 311 368 100
E 312 314 1
E 312 323 14
E 313 316 1
E 314 324 14
E 314 369 100
E 315 317 1
E 315 323 13
E 317 325 13
E 317 350 53
E 318 319 1
E 318 320 1
E 319 321 1
E 320 321 1
E 320 327 14
E 321 328 14
E 322 331 14
E 323 324 1
E 323 325 1
E 324 326 1
E 324 370 100
E 325 326 1
E 325 354 53
E 326 356 53
E 326 371 100
E 327 328 1
E 327 329 1
E 328 330 1
E 329 330 1
E 332 333 1
E 332 334 1
E 333 335 1
E 334 335 1
E 334 341 14
E 335 342 14
E 336 346 14
E 336 374 103
E 337 338 1
E 337 339 1
E 338 340 1
E 339 340 1
E 341 342 1
E 341 343 1
E 342 344 1
E 343 344 1
E 345 353 14
E 345 378 96
E 346 382 103
E 347 348 1
E 347 349 1
E 348 350 1
E 348 351 1
E 349 351 1
E 349 355 14
E 350 352 1
E 350 354 13
E 351 352 1
E 351 358 14
E 352 357 13
E 352 361 14
E 353 387 96
E 354 356 1
E 354 357 1
E 355 358 1
E 355 359 1
E 356 360 1
E 356 398 100
E 357 360 1
E 357 364 14
E 358 361 1
E 358 362 1
E 359 362 1
E 359 376 76
E 360 365 14
E 360 401 100
E 361 363 1
E 361 364 13
E 362 363 1
E 362 377 76
E 363 366 13
E 363 379 76
E 364 365 1
E 364 366 1
E 365 367 1
E 365 411 100
E 366 367 1
E 366 386 76
E 367 388 76
E 367 414 100
E 368 369 1
E 369 370 14
E 370 371 1
E 371 398 53
E 372 373 1
E 372 374 1
E 373 375 1
E 374 375 1
E 374 382 14
E 375 383 14
E 376 377 1
E 376 378 1
E 377 379 1
E 377 380 1
E 378 380 1
E 378 387 14
E 379 381 1
E 379 386 13
E 380 381 1
E 380 390 14
E 381 389 13
E 381 393 14
E 382 383 1
E 382 384 1
E 383 385 1
E 384 385 1
E 386 388 1
E 386 389 1
E 387 390 1
E 387 391 1
E 388 392 1
E 388 423 100
E 389 392 1
E 389 405 14
E 390 393 1
E 390 394 1
E 391 394 1
E 392 406 14
E 392 425 100
E 393 395 1
E 393 405 13
E 394 395 1
E 395 407 13
E 396 399 1
E 397 399 1
E 397 409 14
E 398 400 1
E 398 401 1
E 399 410 14
E 400 402 1
E 400 403 1
E 401 403 1
E 401 411 14
E 402 404 1
E 402 418 74
E 403 404 1
E 403 413 14
E 404 415 14
E 404 419 74
E 405 406 1
E 405 407 1
E 406 408 1
E 407 408 1
E 409 410 1
E 410 412 1
E 411 413 1
E 411 414 1
E 413 415 1
E 413 416 1
E 414 416 1
E 414 423 76
E 415 417 1
E 415 422 74
E 416 417 1
E 416 432 168
E 417 435 168
E 418 419 1
E 419 420 1
E 419 422 14
E 421 426 14
E 421 433 100
E 423 425 1
E 424 427 14
E 425 429 91
E 426 438 100
E 428 430 1
E 428 431 1
E 429 432 1
E 429 433 1
E 430 434 1
E 430 451 102
E 431 434 1
E 432 435 1
E 432 436 1
E 433 436 1
E 433 438 14
E 434 453 102
E 435 437 1
E 436 437 1
E 436 439 14
E 437 441 14
E 438 439 1
E 438 440 1
E 439 441 1
E 439 442 1
E 440 442 1
E 440 444 30
E 441 443 1
E 442 443 1
E 444 445 1
E 445 446 1
E 445 447 14
E 448 449 1
E 448 462 74
E 449 464 74
E 450 455 14
E 451 452 1
E 451 453 1
E 452 454 1
E 453 454 1
E 456 457 1
E 456 458 1
E 457 459 1
E 457 460 1
E 458 460 1
E 458 462 14
E 459 461 1
E 460 461 1
E 460 463 14
E 461 465 14
E 462 463 1
E 462 464 1
E 463 465 1
E 463 466 1
E 464 466 1
E 465 467 1
E 466 467 1
E 468 469 14
E 1 470 100000
E 2 470 100000
E 3 470 100000
E 4 470 100000
E 5 470 100000
E 6 471 100000
E 7 472 100000
E 8 472 100000
E 9 472 100000
E 10 472 100000
E 11 472 100000
E 12 473 100000
E 13 473 100000
E 14 473 100000
E 15 473 100000
E 16 473 100000
E 17 474 100000
E 18 474 100000
E 19 474 100000
E 20 474 100000
E 21 474 100000
E 22 474 100000
E 23 475 100000
E 24 475 100000
E 25 475 100000
E 26 475 100000
E 27 475 100000
E 28 476 100000
E 29 476 100000
E 30 476 100000
E 31 476 100000
E 32 476 100000
E 33 477 100000
E 34 477 100000
E 35 477 100000
E 36 477 100000
E 37 477 100000
E 38 477 100000
E 39 478 100000
E 40 479 100000
E 41 480 100000
E 42 480 100000
E 43 480 100000
E 44 480 100000
E 45 480 100000
E 46 480 100000
E 47 481 100000
E 48 481 100000
E 49 481 100000
E 50 481 100000
E 51 481 100000
E 52 481 100000
E 53 482 100000
E 54 482 100000
E 55 482 100000
E 56 482 100000
E 57 482 100000
E 58 482 100000
E 59 483 100000
E 60 483 100000
E 61 483 100000
E 62 483 100000
E 63 483 100000
E 64 483 100000
E 65 484 100000
E 66 484 100000
E 67 484 100000
E 68 484 100000
E 69 484 100000
E 70 484 100000
E 71 485 100000
E 72 485 100000
E 73 485 100000
E 74 485 100000
E 75 485 100000
E 76 485 100000
E 77 486 100000
E 78 486 100000
E 79 486 100000
E 80 486 100000
E 81 486 100000
E 82 487 100000
E 83 487 100000
E 84 487 100000
E 85 487 100000
E 86 487 100000
E 87 487 100000
E 88 488 100000
E 89 488 100000
E 90 488 100000
E 91 488 100000
E 92 488 100000
E 93 488 100000
E 94 489 100000
E 95 489 100000
E 96 489 100000
E 97 489 100000
E 98 489 100000
E 99 490 100000
E 100 490 100000
E 101 490 100000
E 102 490 100000
E 103 490 100000
E 104 490 100000
E 105 491 100000
E 106 491 100000
E 107 491 100000
E 108 491 100000
E 109 491 100000
E 110 491 100000
E 111 492 100000
E 112 492 100000
E 113 492 100000
E 114 492 100000
E 115 492 100000
E 116 493 100000
E 117 493 100000
E 118 493 100000
E 119 493 100000
E 120 493 100000
END

SECTION Terminals
Terminals 24
T 470
T 471
T 472
T 473
T 474
T 475
T 476
T 477
T 478
T 479
T 480
T 481
T 482
T 483
T 484
T 485
T 486
T 487
T 488
T 489
T 490
T 491
T 492
T 493
END

EOF
